p cnf 760 2556
-1 0
-381 0
400 2 0
-400 -2 0
2 419 3 0
-2 -419 0
-2 -3 0
-419 -3 0
3 438 4 0
-3 -438 0
-3 -4 0
-438 -4 0
4 457 5 0
-4 -457 0
-4 -5 0
-457 -5 0
5 476 6 0
-5 -476 0
-5 -6 0
-476 -6 0
6 495 7 0
-6 -495 0
-6 -7 0
-495 -7 0
7 514 8 0
-7 -514 0
-7 -8 0
-514 -8 0
8 533 9 0
-8 -533 0
-8 -9 0
-533 -9 0
9 552 10 0
-9 -552 0
-9 -10 0
-552 -10 0
10 571 11 0
-10 -571 0
-10 -11 0
-571 -11 0
11 590 12 0
-11 -590 0
-11 -12 0
-590 -12 0
12 609 13 0
-12 -609 0
-12 -13 0
-609 -13 0
13 628 14 0
-13 -628 0
-13 -14 0
-628 -14 0
14 647 15 0
-14 -647 0
-14 -15 0
-647 -15 0
15 666 16 0
-15 -666 0
-15 -16 0
-666 -16 0
16 685 17 0
-16 -685 0
-16 -17 0
-685 -17 0
17 704 18 0
-17 -704 0
-17 -18 0
-704 -18 0
18 723 19 0
-18 -723 0
-18 -19 0
-723 -19 0
19 742 0
-19 -742 0
382 20 0
-382 -20 0
400 20 401 21 0
-400 -20 0
-400 -401 0
-400 -21 0
-20 -401 0
-20 -21 0
-401 -21 0
419 21 420 22 0
-419 -21 0
-419 -420 0
-419 -22 0
-21 -420 0
-21 -22 0
-420 -22 0
438 22 439 23 0
-438 -22 0
-438 -439 0
-438 -23 0
-22 -439 0
-22 -23 0
-439 -23 0
457 23 458 24 0
-457 -23 0
-457 -458 0
-457 -24 0
-23 -458 0
-23 -24 0
-458 -24 0
476 24 477 25 0
-476 -24 0
-476 -477 0
-476 -25 0
-24 -477 0
-24 -25 0
-477 -25 0
495 25 496 26 0
-495 -25 0
-495 -496 0
-495 -26 0
-25 -496 0
-25 -26 0
-496 -26 0
514 26 515 27 0
-514 -26 0
-514 -515 0
-514 -27 0
-26 -515 0
-26 -27 0
-515 -27 0
533 27 534 28 0
-533 -27 0
-533 -534 0
-533 -28 0
-27 -534 0
-27 -28 0
-534 -28 0
552 28 553 29 0
-552 -28 0
-552 -553 0
-552 -29 0
-28 -553 0
-28 -29 0
-553 -29 0
571 29 572 30 0
-571 -29 0
-571 -572 0
-571 -30 0
-29 -572 0
-29 -30 0
-572 -30 0
590 30 591 31 0
-590 -30 0
-590 -591 0
-590 -31 0
-30 -591 0
-30 -31 0
-591 -31 0
609 31 610 32 0
-609 -31 0
-609 -610 0
-609 -32 0
-31 -610 0
-31 -32 0
-610 -32 0
628 32 629 33 0
-628 -32 0
-628 -629 0
-628 -33 0
-32 -629 0
-32 -33 0
-629 -33 0
647 33 648 34 0
-647 -33 0
-647 -648 0
-647 -34 0
-33 -648 0
-33 -34 0
-648 -34 0
666 34 667 35 0
-666 -34 0
-666 -667 0
-666 -35 0
-34 -667 0
-34 -35 0
-667 -35 0
685 35 686 36 0
-685 -35 0
-685 -686 0
-685 -36 0
-35 -686 0
-35 -36 0
-686 -36 0
704 36 705 37 0
-704 -36 0
-704 -705 0
-704 -37 0
-36 -705 0
-36 -37 0
-705 -37 0
723 37 724 38 0
-723 -37 0
-723 -724 0
-723 -38 0
-37 -724 0
-37 -38 0
-724 -38 0
742 38 743 0
-742 -38 0
-742 -743 0
-38 -743 0
382 383 39 0
-382 -383 0
-382 -39 0
-383 -39 0
401 39 402 40 0
-401 -39 0
-401 -402 0
-401 -40 0
-39 -402 0
-39 -40 0
-402 -40 0
420 40 421 41 0
-420 -40 0
-420 -421 0
-420 -41 0
-40 -421 0
-40 -41 0
-421 -41 0
439 41 440 42 0
-439 -41 0
-439 -440 0
-439 -42 0
-41 -440 0
-41 -42 0
-440 -42 0
458 42 459 43 0
-458 -42 0
-458 -459 0
-458 -43 0
-42 -459 0
-42 -43 0
-459 -43 0
477 43 478 44 0
-477 -43 0
-477 -478 0
-477 -44 0
-43 -478 0
-43 -44 0
-478 -44 0
496 44 497 45 0
-496 -44 0
-496 -497 0
-496 -45 0
-44 -497 0
-44 -45 0
-497 -45 0
515 45 516 46 0
-515 -45 0
-515 -516 0
-515 -46 0
-45 -516 0
-45 -46 0
-516 -46 0
534 46 535 47 0
-534 -46 0
-534 -535 0
-534 -47 0
-46 -535 0
-46 -47 0
-535 -47 0
553 47 554 48 0
-553 -47 0
-553 -554 0
-553 -48 0
-47 -554 0
-47 -48 0
-554 -48 0
572 48 573 49 0
-572 -48 0
-572 -573 0
-572 -49 0
-48 -573 0
-48 -49 0
-573 -49 0
591 49 592 50 0
-591 -49 0
-591 -592 0
-591 -50 0
-49 -592 0
-49 -50 0
-592 -50 0
610 50 611 51 0
-610 -50 0
-610 -611 0
-610 -51 0
-50 -611 0
-50 -51 0
-611 -51 0
629 51 630 52 0
-629 -51 0
-629 -630 0
-629 -52 0
-51 -630 0
-51 -52 0
-630 -52 0
648 52 649 53 0
-648 -52 0
-648 -649 0
-648 -53 0
-52 -649 0
-52 -53 0
-649 -53 0
667 53 668 54 0
-667 -53 0
-667 -668 0
-667 -54 0
-53 -668 0
-53 -54 0
-668 -54 0
686 54 687 55 0
-686 -54 0
-686 -687 0
-686 -55 0
-54 -687 0
-54 -55 0
-687 -55 0
705 55 706 56 0
-705 -55 0
-705 -706 0
-705 -56 0
-55 -706 0
-55 -56 0
-706 -56 0
724 56 725 57 0
-724 -56 0
-724 -725 0
-724 -57 0
-56 -725 0
-56 -57 0
-725 -57 0
743 57 744 0
-743 -57 0
-743 -744 0
-57 -744 0
383 384 58 0
-383 -384 0
-383 -58 0
-384 -58 0
402 58 403 59 0
-402 -58 0
-402 -403 0
-402 -59 0
-58 -403 0
-58 -59 0
-403 -59 0
421 59 422 60 0
-421 -59 0
-421 -422 0
-421 -60 0
-59 -422 0
-59 -60 0
-422 -60 0
440 60 441 61 0
-440 -60 0
-440 -441 0
-440 -61 0
-60 -441 0
-60 -61 0
-441 -61 0
459 61 460 62 0
-459 -61 0
-459 -460 0
-459 -62 0
-61 -460 0
-61 -62 0
-460 -62 0
478 62 479 63 0
-478 -62 0
-478 -479 0
-478 -63 0
-62 -479 0
-62 -63 0
-479 -63 0
497 63 498 64 0
-497 -63 0
-497 -498 0
-497 -64 0
-63 -498 0
-63 -64 0
-498 -64 0
516 64 517 65 0
-516 -64 0
-516 -517 0
-516 -65 0
-64 -517 0
-64 -65 0
-517 -65 0
535 65 536 66 0
-535 -65 0
-535 -536 0
-535 -66 0
-65 -536 0
-65 -66 0
-536 -66 0
554 66 555 67 0
-554 -66 0
-554 -555 0
-554 -67 0
-66 -555 0
-66 -67 0
-555 -67 0
573 67 574 68 0
-573 -67 0
-573 -574 0
-573 -68 0
-67 -574 0
-67 -68 0
-574 -68 0
592 68 593 69 0
-592 -68 0
-592 -593 0
-592 -69 0
-68 -593 0
-68 -69 0
-593 -69 0
611 69 612 70 0
-611 -69 0
-611 -612 0
-611 -70 0
-69 -612 0
-69 -70 0
-612 -70 0
630 70 631 71 0
-630 -70 0
-630 -631 0
-630 -71 0
-70 -631 0
-70 -71 0
-631 -71 0
649 71 650 72 0
-649 -71 0
-649 -650 0
-649 -72 0
-71 -650 0
-71 -72 0
-650 -72 0
668 72 669 73 0
-668 -72 0
-668 -669 0
-668 -73 0
-72 -669 0
-72 -73 0
-669 -73 0
687 73 688 74 0
-687 -73 0
-687 -688 0
-687 -74 0
-73 -688 0
-73 -74 0
-688 -74 0
706 74 707 75 0
-706 -74 0
-706 -707 0
-706 -75 0
-74 -707 0
-74 -75 0
-707 -75 0
725 75 726 76 0
-725 -75 0
-725 -726 0
-725 -76 0
-75 -726 0
-75 -76 0
-726 -76 0
744 76 745 0
-744 -76 0
-744 -745 0
-76 -745 0
384 385 77 0
-384 -385 0
-384 -77 0
-385 -77 0
403 77 404 78 0
-403 -77 0
-403 -404 0
-403 -78 0
-77 -404 0
-77 -78 0
-404 -78 0
422 78 423 79 0
-422 -78 0
-422 -423 0
-422 -79 0
-78 -423 0
-78 -79 0
-423 -79 0
441 79 442 80 0
-441 -79 0
-441 -442 0
-441 -80 0
-79 -442 0
-79 -80 0
-442 -80 0
460 80 461 81 0
-460 -80 0
-460 -461 0
-460 -81 0
-80 -461 0
-80 -81 0
-461 -81 0
479 81 480 82 0
-479 -81 0
-479 -480 0
-479 -82 0
-81 -480 0
-81 -82 0
-480 -82 0
498 82 499 83 0
-498 -82 0
-498 -499 0
-498 -83 0
-82 -499 0
-82 -83 0
-499 -83 0
517 83 518 84 0
-517 -83 0
-517 -518 0
-517 -84 0
-83 -518 0
-83 -84 0
-518 -84 0
536 84 537 85 0
-536 -84 0
-536 -537 0
-536 -85 0
-84 -537 0
-84 -85 0
-537 -85 0
555 85 556 86 0
-555 -85 0
-555 -556 0
-555 -86 0
-85 -556 0
-85 -86 0
-556 -86 0
574 86 575 87 0
-574 -86 0
-574 -575 0
-574 -87 0
-86 -575 0
-86 -87 0
-575 -87 0
593 87 594 88 0
-593 -87 0
-593 -594 0
-593 -88 0
-87 -594 0
-87 -88 0
-594 -88 0
612 88 613 89 0
-612 -88 0
-612 -613 0
-612 -89 0
-88 -613 0
-88 -89 0
-613 -89 0
631 89 632 90 0
-631 -89 0
-631 -632 0
-631 -90 0
-89 -632 0
-89 -90 0
-632 -90 0
650 90 651 91 0
-650 -90 0
-650 -651 0
-650 -91 0
-90 -651 0
-90 -91 0
-651 -91 0
669 91 670 92 0
-669 -91 0
-669 -670 0
-669 -92 0
-91 -670 0
-91 -92 0
-670 -92 0
688 92 689 93 0
-688 -92 0
-688 -689 0
-688 -93 0
-92 -689 0
-92 -93 0
-689 -93 0
707 93 708 94 0
-707 -93 0
-707 -708 0
-707 -94 0
-93 -708 0
-93 -94 0
-708 -94 0
726 94 727 95 0
-726 -94 0
-726 -727 0
-726 -95 0
-94 -727 0
-94 -95 0
-727 -95 0
745 95 746 0
-745 -95 0
-745 -746 0
-95 -746 0
385 386 96 0
-385 -386 0
-385 -96 0
-386 -96 0
404 96 405 97 0
-404 -96 0
-404 -405 0
-404 -97 0
-96 -405 0
-96 -97 0
-405 -97 0
423 97 424 98 0
-423 -97 0
-423 -424 0
-423 -98 0
-97 -424 0
-97 -98 0
-424 -98 0
442 98 443 99 0
-442 -98 0
-442 -443 0
-442 -99 0
-98 -443 0
-98 -99 0
-443 -99 0
461 99 462 100 0
-461 -99 0
-461 -462 0
-461 -100 0
-99 -462 0
-99 -100 0
-462 -100 0
480 100 481 101 0
-480 -100 0
-480 -481 0
-480 -101 0
-100 -481 0
-100 -101 0
-481 -101 0
499 101 500 102 0
-499 -101 0
-499 -500 0
-499 -102 0
-101 -500 0
-101 -102 0
-500 -102 0
518 102 519 103 0
-518 -102 0
-518 -519 0
-518 -103 0
-102 -519 0
-102 -103 0
-519 -103 0
537 103 538 104 0
-537 -103 0
-537 -538 0
-537 -104 0
-103 -538 0
-103 -104 0
-538 -104 0
556 104 557 105 0
-556 -104 0
-556 -557 0
-556 -105 0
-104 -557 0
-104 -105 0
-557 -105 0
575 105 576 106 0
-575 -105 0
-575 -576 0
-575 -106 0
-105 -576 0
-105 -106 0
-576 -106 0
594 106 595 107 0
-594 -106 0
-594 -595 0
-594 -107 0
-106 -595 0
-106 -107 0
-595 -107 0
613 107 614 108 0
-613 -107 0
-613 -614 0
-613 -108 0
-107 -614 0
-107 -108 0
-614 -108 0
632 108 633 109 0
-632 -108 0
-632 -633 0
-632 -109 0
-108 -633 0
-108 -109 0
-633 -109 0
651 109 652 110 0
-651 -109 0
-651 -652 0
-651 -110 0
-109 -652 0
-109 -110 0
-652 -110 0
670 110 671 111 0
-670 -110 0
-670 -671 0
-670 -111 0
-110 -671 0
-110 -111 0
-671 -111 0
689 111 690 112 0
-689 -111 0
-689 -690 0
-689 -112 0
-111 -690 0
-111 -112 0
-690 -112 0
708 112 709 113 0
-708 -112 0
-708 -709 0
-708 -113 0
-112 -709 0
-112 -113 0
-709 -113 0
727 113 728 114 0
-727 -113 0
-727 -728 0
-727 -114 0
-113 -728 0
-113 -114 0
-728 -114 0
746 114 747 0
-746 -114 0
-746 -747 0
-114 -747 0
386 387 115 0
-386 -387 0
-386 -115 0
-387 -115 0
405 115 406 116 0
-405 -115 0
-405 -406 0
-405 -116 0
-115 -406 0
-115 -116 0
-406 -116 0
424 116 425 117 0
-424 -116 0
-424 -425 0
-424 -117 0
-116 -425 0
-116 -117 0
-425 -117 0
443 117 444 118 0
-443 -117 0
-443 -444 0
-443 -118 0
-117 -444 0
-117 -118 0
-444 -118 0
462 118 463 119 0
-462 -118 0
-462 -463 0
-462 -119 0
-118 -463 0
-118 -119 0
-463 -119 0
481 119 482 120 0
-481 -119 0
-481 -482 0
-481 -120 0
-119 -482 0
-119 -120 0
-482 -120 0
500 120 501 121 0
-500 -120 0
-500 -501 0
-500 -121 0
-120 -501 0
-120 -121 0
-501 -121 0
519 121 520 122 0
-519 -121 0
-519 -520 0
-519 -122 0
-121 -520 0
-121 -122 0
-520 -122 0
538 122 539 123 0
-538 -122 0
-538 -539 0
-538 -123 0
-122 -539 0
-122 -123 0
-539 -123 0
557 123 558 124 0
-557 -123 0
-557 -558 0
-557 -124 0
-123 -558 0
-123 -124 0
-558 -124 0
576 124 577 125 0
-576 -124 0
-576 -577 0
-576 -125 0
-124 -577 0
-124 -125 0
-577 -125 0
595 125 596 126 0
-595 -125 0
-595 -596 0
-595 -126 0
-125 -596 0
-125 -126 0
-596 -126 0
614 126 615 127 0
-614 -126 0
-614 -615 0
-614 -127 0
-126 -615 0
-126 -127 0
-615 -127 0
633 127 634 128 0
-633 -127 0
-633 -634 0
-633 -128 0
-127 -634 0
-127 -128 0
-634 -128 0
652 128 653 129 0
-652 -128 0
-652 -653 0
-652 -129 0
-128 -653 0
-128 -129 0
-653 -129 0
671 129 672 130 0
-671 -129 0
-671 -672 0
-671 -130 0
-129 -672 0
-129 -130 0
-672 -130 0
690 130 691 131 0
-690 -130 0
-690 -691 0
-690 -131 0
-130 -691 0
-130 -131 0
-691 -131 0
709 131 710 132 0
-709 -131 0
-709 -710 0
-709 -132 0
-131 -710 0
-131 -132 0
-710 -132 0
728 132 729 133 0
-728 -132 0
-728 -729 0
-728 -133 0
-132 -729 0
-132 -133 0
-729 -133 0
747 133 748 0
-747 -133 0
-747 -748 0
-133 -748 0
387 388 134 0
-387 -388 0
-387 -134 0
-388 -134 0
406 134 407 135 0
-406 -134 0
-406 -407 0
-406 -135 0
-134 -407 0
-134 -135 0
-407 -135 0
425 135 426 136 0
-425 -135 0
-425 -426 0
-425 -136 0
-135 -426 0
-135 -136 0
-426 -136 0
444 136 445 137 0
-444 -136 0
-444 -445 0
-444 -137 0
-136 -445 0
-136 -137 0
-445 -137 0
463 137 464 138 0
-463 -137 0
-463 -464 0
-463 -138 0
-137 -464 0
-137 -138 0
-464 -138 0
482 138 483 139 0
-482 -138 0
-482 -483 0
-482 -139 0
-138 -483 0
-138 -139 0
-483 -139 0
501 139 502 140 0
-501 -139 0
-501 -502 0
-501 -140 0
-139 -502 0
-139 -140 0
-502 -140 0
520 140 521 141 0
-520 -140 0
-520 -521 0
-520 -141 0
-140 -521 0
-140 -141 0
-521 -141 0
539 141 540 142 0
-539 -141 0
-539 -540 0
-539 -142 0
-141 -540 0
-141 -142 0
-540 -142 0
558 142 559 143 0
-558 -142 0
-558 -559 0
-558 -143 0
-142 -559 0
-142 -143 0
-559 -143 0
577 143 578 144 0
-577 -143 0
-577 -578 0
-577 -144 0
-143 -578 0
-143 -144 0
-578 -144 0
596 144 597 145 0
-596 -144 0
-596 -597 0
-596 -145 0
-144 -597 0
-144 -145 0
-597 -145 0
615 145 616 146 0
-615 -145 0
-615 -616 0
-615 -146 0
-145 -616 0
-145 -146 0
-616 -146 0
634 146 635 147 0
-634 -146 0
-634 -635 0
-634 -147 0
-146 -635 0
-146 -147 0
-635 -147 0
653 147 654 148 0
-653 -147 0
-653 -654 0
-653 -148 0
-147 -654 0
-147 -148 0
-654 -148 0
672 148 673 149 0
-672 -148 0
-672 -673 0
-672 -149 0
-148 -673 0
-148 -149 0
-673 -149 0
691 149 692 150 0
-691 -149 0
-691 -692 0
-691 -150 0
-149 -692 0
-149 -150 0
-692 -150 0
710 150 711 151 0
-710 -150 0
-710 -711 0
-710 -151 0
-150 -711 0
-150 -151 0
-711 -151 0
729 151 730 152 0
-729 -151 0
-729 -730 0
-729 -152 0
-151 -730 0
-151 -152 0
-730 -152 0
748 152 749 0
-748 -152 0
-748 -749 0
-152 -749 0
388 389 153 0
-388 -389 0
-388 -153 0
-389 -153 0
407 153 408 154 0
-407 -153 0
-407 -408 0
-407 -154 0
-153 -408 0
-153 -154 0
-408 -154 0
426 154 427 155 0
-426 -154 0
-426 -427 0
-426 -155 0
-154 -427 0
-154 -155 0
-427 -155 0
445 155 446 156 0
-445 -155 0
-445 -446 0
-445 -156 0
-155 -446 0
-155 -156 0
-446 -156 0
464 156 465 157 0
-464 -156 0
-464 -465 0
-464 -157 0
-156 -465 0
-156 -157 0
-465 -157 0
483 157 484 158 0
-483 -157 0
-483 -484 0
-483 -158 0
-157 -484 0
-157 -158 0
-484 -158 0
502 158 503 159 0
-502 -158 0
-502 -503 0
-502 -159 0
-158 -503 0
-158 -159 0
-503 -159 0
521 159 522 160 0
-521 -159 0
-521 -522 0
-521 -160 0
-159 -522 0
-159 -160 0
-522 -160 0
540 160 541 161 0
-540 -160 0
-540 -541 0
-540 -161 0
-160 -541 0
-160 -161 0
-541 -161 0
559 161 560 162 0
-559 -161 0
-559 -560 0
-559 -162 0
-161 -560 0
-161 -162 0
-560 -162 0
578 162 579 163 0
-578 -162 0
-578 -579 0
-578 -163 0
-162 -579 0
-162 -163 0
-579 -163 0
597 163 598 164 0
-597 -163 0
-597 -598 0
-597 -164 0
-163 -598 0
-163 -164 0
-598 -164 0
616 164 617 165 0
-616 -164 0
-616 -617 0
-616 -165 0
-164 -617 0
-164 -165 0
-617 -165 0
635 165 636 166 0
-635 -165 0
-635 -636 0
-635 -166 0
-165 -636 0
-165 -166 0
-636 -166 0
654 166 655 167 0
-654 -166 0
-654 -655 0
-654 -167 0
-166 -655 0
-166 -167 0
-655 -167 0
673 167 674 168 0
-673 -167 0
-673 -674 0
-673 -168 0
-167 -674 0
-167 -168 0
-674 -168 0
692 168 693 169 0
-692 -168 0
-692 -693 0
-692 -169 0
-168 -693 0
-168 -169 0
-693 -169 0
711 169 712 170 0
-711 -169 0
-711 -712 0
-711 -170 0
-169 -712 0
-169 -170 0
-712 -170 0
730 170 731 171 0
-730 -170 0
-730 -731 0
-730 -171 0
-170 -731 0
-170 -171 0
-731 -171 0
749 171 750 0
-749 -171 0
-749 -750 0
-171 -750 0
389 390 172 0
-389 -390 0
-389 -172 0
-390 -172 0
408 172 409 173 0
-408 -172 0
-408 -409 0
-408 -173 0
-172 -409 0
-172 -173 0
-409 -173 0
427 173 428 174 0
-427 -173 0
-427 -428 0
-427 -174 0
-173 -428 0
-173 -174 0
-428 -174 0
446 174 447 175 0
-446 -174 0
-446 -447 0
-446 -175 0
-174 -447 0
-174 -175 0
-447 -175 0
465 175 466 176 0
-465 -175 0
-465 -466 0
-465 -176 0
-175 -466 0
-175 -176 0
-466 -176 0
484 176 485 177 0
-484 -176 0
-484 -485 0
-484 -177 0
-176 -485 0
-176 -177 0
-485 -177 0
503 177 504 178 0
-503 -177 0
-503 -504 0
-503 -178 0
-177 -504 0
-177 -178 0
-504 -178 0
522 178 523 179 0
-522 -178 0
-522 -523 0
-522 -179 0
-178 -523 0
-178 -179 0
-523 -179 0
541 179 542 180 0
-541 -179 0
-541 -542 0
-541 -180 0
-179 -542 0
-179 -180 0
-542 -180 0
560 180 561 181 0
-560 -180 0
-560 -561 0
-560 -181 0
-180 -561 0
-180 -181 0
-561 -181 0
579 181 580 182 0
-579 -181 0
-579 -580 0
-579 -182 0
-181 -580 0
-181 -182 0
-580 -182 0
598 182 599 183 0
-598 -182 0
-598 -599 0
-598 -183 0
-182 -599 0
-182 -183 0
-599 -183 0
617 183 618 184 0
-617 -183 0
-617 -618 0
-617 -184 0
-183 -618 0
-183 -184 0
-618 -184 0
636 184 637 185 0
-636 -184 0
-636 -637 0
-636 -185 0
-184 -637 0
-184 -185 0
-637 -185 0
655 185 656 186 0
-655 -185 0
-655 -656 0
-655 -186 0
-185 -656 0
-185 -186 0
-656 -186 0
674 186 675 187 0
-674 -186 0
-674 -675 0
-674 -187 0
-186 -675 0
-186 -187 0
-675 -187 0
693 187 694 188 0
-693 -187 0
-693 -694 0
-693 -188 0
-187 -694 0
-187 -188 0
-694 -188 0
712 188 713 189 0
-712 -188 0
-712 -713 0
-712 -189 0
-188 -713 0
-188 -189 0
-713 -189 0
731 189 732 190 0
-731 -189 0
-731 -732 0
-731 -190 0
-189 -732 0
-189 -190 0
-732 -190 0
750 190 751 0
-750 -190 0
-750 -751 0
-190 -751 0
390 391 191 0
-390 -391 0
-390 -191 0
-391 -191 0
409 191 410 192 0
-409 -191 0
-409 -410 0
-409 -192 0
-191 -410 0
-191 -192 0
-410 -192 0
428 192 429 193 0
-428 -192 0
-428 -429 0
-428 -193 0
-192 -429 0
-192 -193 0
-429 -193 0
447 193 448 194 0
-447 -193 0
-447 -448 0
-447 -194 0
-193 -448 0
-193 -194 0
-448 -194 0
466 194 467 195 0
-466 -194 0
-466 -467 0
-466 -195 0
-194 -467 0
-194 -195 0
-467 -195 0
485 195 486 196 0
-485 -195 0
-485 -486 0
-485 -196 0
-195 -486 0
-195 -196 0
-486 -196 0
504 196 505 197 0
-504 -196 0
-504 -505 0
-504 -197 0
-196 -505 0
-196 -197 0
-505 -197 0
523 197 524 198 0
-523 -197 0
-523 -524 0
-523 -198 0
-197 -524 0
-197 -198 0
-524 -198 0
542 198 543 199 0
-542 -198 0
-542 -543 0
-542 -199 0
-198 -543 0
-198 -199 0
-543 -199 0
561 199 562 200 0
-561 -199 0
-561 -562 0
-561 -200 0
-199 -562 0
-199 -200 0
-562 -200 0
580 200 581 201 0
-580 -200 0
-580 -581 0
-580 -201 0
-200 -581 0
-200 -201 0
-581 -201 0
599 201 600 202 0
-599 -201 0
-599 -600 0
-599 -202 0
-201 -600 0
-201 -202 0
-600 -202 0
618 202 619 203 0
-618 -202 0
-618 -619 0
-618 -203 0
-202 -619 0
-202 -203 0
-619 -203 0
637 203 638 204 0
-637 -203 0
-637 -638 0
-637 -204 0
-203 -638 0
-203 -204 0
-638 -204 0
656 204 657 205 0
-656 -204 0
-656 -657 0
-656 -205 0
-204 -657 0
-204 -205 0
-657 -205 0
675 205 676 206 0
-675 -205 0
-675 -676 0
-675 -206 0
-205 -676 0
-205 -206 0
-676 -206 0
694 206 695 207 0
-694 -206 0
-694 -695 0
-694 -207 0
-206 -695 0
-206 -207 0
-695 -207 0
713 207 714 208 0
-713 -207 0
-713 -714 0
-713 -208 0
-207 -714 0
-207 -208 0
-714 -208 0
732 208 733 209 0
-732 -208 0
-732 -733 0
-732 -209 0
-208 -733 0
-208 -209 0
-733 -209 0
751 209 752 0
-751 -209 0
-751 -752 0
-209 -752 0
391 392 210 0
-391 -392 0
-391 -210 0
-392 -210 0
410 210 411 211 0
-410 -210 0
-410 -411 0
-410 -211 0
-210 -411 0
-210 -211 0
-411 -211 0
429 211 430 212 0
-429 -211 0
-429 -430 0
-429 -212 0
-211 -430 0
-211 -212 0
-430 -212 0
448 212 449 213 0
-448 -212 0
-448 -449 0
-448 -213 0
-212 -449 0
-212 -213 0
-449 -213 0
467 213 468 214 0
-467 -213 0
-467 -468 0
-467 -214 0
-213 -468 0
-213 -214 0
-468 -214 0
486 214 487 215 0
-486 -214 0
-486 -487 0
-486 -215 0
-214 -487 0
-214 -215 0
-487 -215 0
505 215 506 216 0
-505 -215 0
-505 -506 0
-505 -216 0
-215 -506 0
-215 -216 0
-506 -216 0
524 216 525 217 0
-524 -216 0
-524 -525 0
-524 -217 0
-216 -525 0
-216 -217 0
-525 -217 0
543 217 544 218 0
-543 -217 0
-543 -544 0
-543 -218 0
-217 -544 0
-217 -218 0
-544 -218 0
562 218 563 219 0
-562 -218 0
-562 -563 0
-562 -219 0
-218 -563 0
-218 -219 0
-563 -219 0
581 219 582 220 0
-581 -219 0
-581 -582 0
-581 -220 0
-219 -582 0
-219 -220 0
-582 -220 0
600 220 601 221 0
-600 -220 0
-600 -601 0
-600 -221 0
-220 -601 0
-220 -221 0
-601 -221 0
619 221 620 222 0
-619 -221 0
-619 -620 0
-619 -222 0
-221 -620 0
-221 -222 0
-620 -222 0
638 222 639 223 0
-638 -222 0
-638 -639 0
-638 -223 0
-222 -639 0
-222 -223 0
-639 -223 0
657 223 658 224 0
-657 -223 0
-657 -658 0
-657 -224 0
-223 -658 0
-223 -224 0
-658 -224 0
676 224 677 225 0
-676 -224 0
-676 -677 0
-676 -225 0
-224 -677 0
-224 -225 0
-677 -225 0
695 225 696 226 0
-695 -225 0
-695 -696 0
-695 -226 0
-225 -696 0
-225 -226 0
-696 -226 0
714 226 715 227 0
-714 -226 0
-714 -715 0
-714 -227 0
-226 -715 0
-226 -227 0
-715 -227 0
733 227 734 228 0
-733 -227 0
-733 -734 0
-733 -228 0
-227 -734 0
-227 -228 0
-734 -228 0
752 228 753 0
-752 -228 0
-752 -753 0
-228 -753 0
392 393 229 0
-392 -393 0
-392 -229 0
-393 -229 0
411 229 412 230 0
-411 -229 0
-411 -412 0
-411 -230 0
-229 -412 0
-229 -230 0
-412 -230 0
430 230 431 231 0
-430 -230 0
-430 -431 0
-430 -231 0
-230 -431 0
-230 -231 0
-431 -231 0
449 231 450 232 0
-449 -231 0
-449 -450 0
-449 -232 0
-231 -450 0
-231 -232 0
-450 -232 0
468 232 469 233 0
-468 -232 0
-468 -469 0
-468 -233 0
-232 -469 0
-232 -233 0
-469 -233 0
487 233 488 234 0
-487 -233 0
-487 -488 0
-487 -234 0
-233 -488 0
-233 -234 0
-488 -234 0
506 234 507 235 0
-506 -234 0
-506 -507 0
-506 -235 0
-234 -507 0
-234 -235 0
-507 -235 0
525 235 526 236 0
-525 -235 0
-525 -526 0
-525 -236 0
-235 -526 0
-235 -236 0
-526 -236 0
544 236 545 237 0
-544 -236 0
-544 -545 0
-544 -237 0
-236 -545 0
-236 -237 0
-545 -237 0
563 237 564 238 0
-563 -237 0
-563 -564 0
-563 -238 0
-237 -564 0
-237 -238 0
-564 -238 0
582 238 583 239 0
-582 -238 0
-582 -583 0
-582 -239 0
-238 -583 0
-238 -239 0
-583 -239 0
601 239 602 240 0
-601 -239 0
-601 -602 0
-601 -240 0
-239 -602 0
-239 -240 0
-602 -240 0
620 240 621 241 0
-620 -240 0
-620 -621 0
-620 -241 0
-240 -621 0
-240 -241 0
-621 -241 0
639 241 640 242 0
-639 -241 0
-639 -640 0
-639 -242 0
-241 -640 0
-241 -242 0
-640 -242 0
658 242 659 243 0
-658 -242 0
-658 -659 0
-658 -243 0
-242 -659 0
-242 -243 0
-659 -243 0
677 243 678 244 0
-677 -243 0
-677 -678 0
-677 -244 0
-243 -678 0
-243 -244 0
-678 -244 0
696 244 697 245 0
-696 -244 0
-696 -697 0
-696 -245 0
-244 -697 0
-244 -245 0
-697 -245 0
715 245 716 246 0
-715 -245 0
-715 -716 0
-715 -246 0
-245 -716 0
-245 -246 0
-716 -246 0
734 246 735 247 0
-734 -246 0
-734 -735 0
-734 -247 0
-246 -735 0
-246 -247 0
-735 -247 0
753 247 754 0
-753 -247 0
-753 -754 0
-247 -754 0
393 394 248 0
-393 -394 0
-393 -248 0
-394 -248 0
412 248 413 249 0
-412 -248 0
-412 -413 0
-412 -249 0
-248 -413 0
-248 -249 0
-413 -249 0
431 249 432 250 0
-431 -249 0
-431 -432 0
-431 -250 0
-249 -432 0
-249 -250 0
-432 -250 0
450 250 451 251 0
-450 -250 0
-450 -451 0
-450 -251 0
-250 -451 0
-250 -251 0
-451 -251 0
469 251 470 252 0
-469 -251 0
-469 -470 0
-469 -252 0
-251 -470 0
-251 -252 0
-470 -252 0
488 252 489 253 0
-488 -252 0
-488 -489 0
-488 -253 0
-252 -489 0
-252 -253 0
-489 -253 0
507 253 508 254 0
-507 -253 0
-507 -508 0
-507 -254 0
-253 -508 0
-253 -254 0
-508 -254 0
526 254 527 255 0
-526 -254 0
-526 -527 0
-526 -255 0
-254 -527 0
-254 -255 0
-527 -255 0
545 255 546 256 0
-545 -255 0
-545 -546 0
-545 -256 0
-255 -546 0
-255 -256 0
-546 -256 0
564 256 565 257 0
-564 -256 0
-564 -565 0
-564 -257 0
-256 -565 0
-256 -257 0
-565 -257 0
583 257 584 258 0
-583 -257 0
-583 -584 0
-583 -258 0
-257 -584 0
-257 -258 0
-584 -258 0
602 258 603 259 0
-602 -258 0
-602 -603 0
-602 -259 0
-258 -603 0
-258 -259 0
-603 -259 0
621 259 622 260 0
-621 -259 0
-621 -622 0
-621 -260 0
-259 -622 0
-259 -260 0
-622 -260 0
640 260 641 261 0
-640 -260 0
-640 -641 0
-640 -261 0
-260 -641 0
-260 -261 0
-641 -261 0
659 261 660 262 0
-659 -261 0
-659 -660 0
-659 -262 0
-261 -660 0
-261 -262 0
-660 -262 0
678 262 679 263 0
-678 -262 0
-678 -679 0
-678 -263 0
-262 -679 0
-262 -263 0
-679 -263 0
697 263 698 264 0
-697 -263 0
-697 -698 0
-697 -264 0
-263 -698 0
-263 -264 0
-698 -264 0
716 264 717 265 0
-716 -264 0
-716 -717 0
-716 -265 0
-264 -717 0
-264 -265 0
-717 -265 0
735 265 736 266 0
-735 -265 0
-735 -736 0
-735 -266 0
-265 -736 0
-265 -266 0
-736 -266 0
754 266 755 0
-754 -266 0
-754 -755 0
-266 -755 0
394 395 267 0
-394 -395 0
-394 -267 0
-395 -267 0
413 267 414 268 0
-413 -267 0
-413 -414 0
-413 -268 0
-267 -414 0
-267 -268 0
-414 -268 0
432 268 433 269 0
-432 -268 0
-432 -433 0
-432 -269 0
-268 -433 0
-268 -269 0
-433 -269 0
451 269 452 270 0
-451 -269 0
-451 -452 0
-451 -270 0
-269 -452 0
-269 -270 0
-452 -270 0
470 270 471 271 0
-470 -270 0
-470 -471 0
-470 -271 0
-270 -471 0
-270 -271 0
-471 -271 0
489 271 490 272 0
-489 -271 0
-489 -490 0
-489 -272 0
-271 -490 0
-271 -272 0
-490 -272 0
508 272 509 273 0
-508 -272 0
-508 -509 0
-508 -273 0
-272 -509 0
-272 -273 0
-509 -273 0
527 273 528 274 0
-527 -273 0
-527 -528 0
-527 -274 0
-273 -528 0
-273 -274 0
-528 -274 0
546 274 547 275 0
-546 -274 0
-546 -547 0
-546 -275 0
-274 -547 0
-274 -275 0
-547 -275 0
565 275 566 276 0
-565 -275 0
-565 -566 0
-565 -276 0
-275 -566 0
-275 -276 0
-566 -276 0
584 276 585 277 0
-584 -276 0
-584 -585 0
-584 -277 0
-276 -585 0
-276 -277 0
-585 -277 0
603 277 604 278 0
-603 -277 0
-603 -604 0
-603 -278 0
-277 -604 0
-277 -278 0
-604 -278 0
622 278 623 279 0
-622 -278 0
-622 -623 0
-622 -279 0
-278 -623 0
-278 -279 0
-623 -279 0
641 279 642 280 0
-641 -279 0
-641 -642 0
-641 -280 0
-279 -642 0
-279 -280 0
-642 -280 0
660 280 661 281 0
-660 -280 0
-660 -661 0
-660 -281 0
-280 -661 0
-280 -281 0
-661 -281 0
679 281 680 282 0
-679 -281 0
-679 -680 0
-679 -282 0
-281 -680 0
-281 -282 0
-680 -282 0
698 282 699 283 0
-698 -282 0
-698 -699 0
-698 -283 0
-282 -699 0
-282 -283 0
-699 -283 0
717 283 718 284 0
-717 -283 0
-717 -718 0
-717 -284 0
-283 -718 0
-283 -284 0
-718 -284 0
736 284 737 285 0
-736 -284 0
-736 -737 0
-736 -285 0
-284 -737 0
-284 -285 0
-737 -285 0
755 285 756 0
-755 -285 0
-755 -756 0
-285 -756 0
395 396 286 0
-395 -396 0
-395 -286 0
-396 -286 0
414 286 415 287 0
-414 -286 0
-414 -415 0
-414 -287 0
-286 -415 0
-286 -287 0
-415 -287 0
433 287 434 288 0
-433 -287 0
-433 -434 0
-433 -288 0
-287 -434 0
-287 -288 0
-434 -288 0
452 288 453 289 0
-452 -288 0
-452 -453 0
-452 -289 0
-288 -453 0
-288 -289 0
-453 -289 0
471 289 472 290 0
-471 -289 0
-471 -472 0
-471 -290 0
-289 -472 0
-289 -290 0
-472 -290 0
490 290 491 291 0
-490 -290 0
-490 -491 0
-490 -291 0
-290 -491 0
-290 -291 0
-491 -291 0
509 291 510 292 0
-509 -291 0
-509 -510 0
-509 -292 0
-291 -510 0
-291 -292 0
-510 -292 0
528 292 529 293 0
-528 -292 0
-528 -529 0
-528 -293 0
-292 -529 0
-292 -293 0
-529 -293 0
547 293 548 294 0
-547 -293 0
-547 -548 0
-547 -294 0
-293 -548 0
-293 -294 0
-548 -294 0
566 294 567 295 0
-566 -294 0
-566 -567 0
-566 -295 0
-294 -567 0
-294 -295 0
-567 -295 0
585 295 586 296 0
-585 -295 0
-585 -586 0
-585 -296 0
-295 -586 0
-295 -296 0
-586 -296 0
604 296 605 297 0
-604 -296 0
-604 -605 0
-604 -297 0
-296 -605 0
-296 -297 0
-605 -297 0
623 297 624 298 0
-623 -297 0
-623 -624 0
-623 -298 0
-297 -624 0
-297 -298 0
-624 -298 0
642 298 643 299 0
-642 -298 0
-642 -643 0
-642 -299 0
-298 -643 0
-298 -299 0
-643 -299 0
661 299 662 300 0
-661 -299 0
-661 -662 0
-661 -300 0
-299 -662 0
-299 -300 0
-662 -300 0
680 300 681 301 0
-680 -300 0
-680 -681 0
-680 -301 0
-300 -681 0
-300 -301 0
-681 -301 0
699 301 700 302 0
-699 -301 0
-699 -700 0
-699 -302 0
-301 -700 0
-301 -302 0
-700 -302 0
718 302 719 303 0
-718 -302 0
-718 -719 0
-718 -303 0
-302 -719 0
-302 -303 0
-719 -303 0
737 303 738 304 0
-737 -303 0
-737 -738 0
-737 -304 0
-303 -738 0
-303 -304 0
-738 -304 0
756 304 757 0
-756 -304 0
-756 -757 0
-304 -757 0
396 397 305 0
-396 -397 0
-396 -305 0
-397 -305 0
415 305 416 306 0
-415 -305 0
-415 -416 0
-415 -306 0
-305 -416 0
-305 -306 0
-416 -306 0
434 306 435 307 0
-434 -306 0
-434 -435 0
-434 -307 0
-306 -435 0
-306 -307 0
-435 -307 0
453 307 454 308 0
-453 -307 0
-453 -454 0
-453 -308 0
-307 -454 0
-307 -308 0
-454 -308 0
472 308 473 309 0
-472 -308 0
-472 -473 0
-472 -309 0
-308 -473 0
-308 -309 0
-473 -309 0
491 309 492 310 0
-491 -309 0
-491 -492 0
-491 -310 0
-309 -492 0
-309 -310 0
-492 -310 0
510 310 511 311 0
-510 -310 0
-510 -511 0
-510 -311 0
-310 -511 0
-310 -311 0
-511 -311 0
529 311 530 312 0
-529 -311 0
-529 -530 0
-529 -312 0
-311 -530 0
-311 -312 0
-530 -312 0
548 312 549 313 0
-548 -312 0
-548 -549 0
-548 -313 0
-312 -549 0
-312 -313 0
-549 -313 0
567 313 568 314 0
-567 -313 0
-567 -568 0
-567 -314 0
-313 -568 0
-313 -314 0
-568 -314 0
586 314 587 315 0
-586 -314 0
-586 -587 0
-586 -315 0
-314 -587 0
-314 -315 0
-587 -315 0
605 315 606 316 0
-605 -315 0
-605 -606 0
-605 -316 0
-315 -606 0
-315 -316 0
-606 -316 0
624 316 625 317 0
-624 -316 0
-624 -625 0
-624 -317 0
-316 -625 0
-316 -317 0
-625 -317 0
643 317 644 318 0
-643 -317 0
-643 -644 0
-643 -318 0
-317 -644 0
-317 -318 0
-644 -318 0
662 318 663 319 0
-662 -318 0
-662 -663 0
-662 -319 0
-318 -663 0
-318 -319 0
-663 -319 0
681 319 682 320 0
-681 -319 0
-681 -682 0
-681 -320 0
-319 -682 0
-319 -320 0
-682 -320 0
700 320 701 321 0
-700 -320 0
-700 -701 0
-700 -321 0
-320 -701 0
-320 -321 0
-701 -321 0
719 321 720 322 0
-719 -321 0
-719 -720 0
-719 -322 0
-321 -720 0
-321 -322 0
-720 -322 0
738 322 739 323 0
-738 -322 0
-738 -739 0
-738 -323 0
-322 -739 0
-322 -323 0
-739 -323 0
757 323 758 0
-757 -323 0
-757 -758 0
-323 -758 0
397 398 324 0
-397 -398 0
-397 -324 0
-398 -324 0
416 324 417 325 0
-416 -324 0
-416 -417 0
-416 -325 0
-324 -417 0
-324 -325 0
-417 -325 0
435 325 436 326 0
-435 -325 0
-435 -436 0
-435 -326 0
-325 -436 0
-325 -326 0
-436 -326 0
454 326 455 327 0
-454 -326 0
-454 -455 0
-454 -327 0
-326 -455 0
-326 -327 0
-455 -327 0
473 327 474 328 0
-473 -327 0
-473 -474 0
-473 -328 0
-327 -474 0
-327 -328 0
-474 -328 0
492 328 493 329 0
-492 -328 0
-492 -493 0
-492 -329 0
-328 -493 0
-328 -329 0
-493 -329 0
511 329 512 330 0
-511 -329 0
-511 -512 0
-511 -330 0
-329 -512 0
-329 -330 0
-512 -330 0
530 330 531 331 0
-530 -330 0
-530 -531 0
-530 -331 0
-330 -531 0
-330 -331 0
-531 -331 0
549 331 550 332 0
-549 -331 0
-549 -550 0
-549 -332 0
-331 -550 0
-331 -332 0
-550 -332 0
568 332 569 333 0
-568 -332 0
-568 -569 0
-568 -333 0
-332 -569 0
-332 -333 0
-569 -333 0
587 333 588 334 0
-587 -333 0
-587 -588 0
-587 -334 0
-333 -588 0
-333 -334 0
-588 -334 0
606 334 607 335 0
-606 -334 0
-606 -607 0
-606 -335 0
-334 -607 0
-334 -335 0
-607 -335 0
625 335 626 336 0
-625 -335 0
-625 -626 0
-625 -336 0
-335 -626 0
-335 -336 0
-626 -336 0
644 336 645 337 0
-644 -336 0
-644 -645 0
-644 -337 0
-336 -645 0
-336 -337 0
-645 -337 0
663 337 664 338 0
-663 -337 0
-663 -664 0
-663 -338 0
-337 -664 0
-337 -338 0
-664 -338 0
682 338 683 339 0
-682 -338 0
-682 -683 0
-682 -339 0
-338 -683 0
-338 -339 0
-683 -339 0
701 339 702 340 0
-701 -339 0
-701 -702 0
-701 -340 0
-339 -702 0
-339 -340 0
-702 -340 0
720 340 721 341 0
-720 -340 0
-720 -721 0
-720 -341 0
-340 -721 0
-340 -341 0
-721 -341 0
739 341 740 342 0
-739 -341 0
-739 -740 0
-739 -342 0
-341 -740 0
-341 -342 0
-740 -342 0
758 342 759 0
-758 -342 0
-758 -759 0
-342 -759 0
398 399 343 0
-398 -399 0
-398 -343 0
-399 -343 0
417 343 418 344 0
-417 -343 0
-417 -418 0
-417 -344 0
-343 -418 0
-343 -344 0
-418 -344 0
436 344 437 345 0
-436 -344 0
-436 -437 0
-436 -345 0
-344 -437 0
-344 -345 0
-437 -345 0
455 345 456 346 0
-455 -345 0
-455 -456 0
-455 -346 0
-345 -456 0
-345 -346 0
-456 -346 0
474 346 475 347 0
-474 -346 0
-474 -475 0
-474 -347 0
-346 -475 0
-346 -347 0
-475 -347 0
493 347 494 348 0
-493 -347 0
-493 -494 0
-493 -348 0
-347 -494 0
-347 -348 0
-494 -348 0
512 348 513 349 0
-512 -348 0
-512 -513 0
-512 -349 0
-348 -513 0
-348 -349 0
-513 -349 0
531 349 532 350 0
-531 -349 0
-531 -532 0
-531 -350 0
-349 -532 0
-349 -350 0
-532 -350 0
550 350 551 351 0
-550 -350 0
-550 -551 0
-550 -351 0
-350 -551 0
-350 -351 0
-551 -351 0
569 351 570 352 0
-569 -351 0
-569 -570 0
-569 -352 0
-351 -570 0
-351 -352 0
-570 -352 0
588 352 589 353 0
-588 -352 0
-588 -589 0
-588 -353 0
-352 -589 0
-352 -353 0
-589 -353 0
607 353 608 354 0
-607 -353 0
-607 -608 0
-607 -354 0
-353 -608 0
-353 -354 0
-608 -354 0
626 354 627 355 0
-626 -354 0
-626 -627 0
-626 -355 0
-354 -627 0
-354 -355 0
-627 -355 0
645 355 646 356 0
-645 -355 0
-645 -646 0
-645 -356 0
-355 -646 0
-355 -356 0
-646 -356 0
664 356 665 357 0
-664 -356 0
-664 -665 0
-664 -357 0
-356 -665 0
-356 -357 0
-665 -357 0
683 357 684 358 0
-683 -357 0
-683 -684 0
-683 -358 0
-357 -684 0
-357 -358 0
-684 -358 0
702 358 703 359 0
-702 -358 0
-702 -703 0
-702 -359 0
-358 -703 0
-358 -359 0
-703 -359 0
721 359 722 360 0
-721 -359 0
-721 -722 0
-721 -360 0
-359 -722 0
-359 -360 0
-722 -360 0
740 360 741 361 0
-740 -360 0
-740 -741 0
-740 -361 0
-360 -741 0
-360 -361 0
-741 -361 0
759 361 0
-759 -361 0
399 362 0
-399 -362 0
418 362 363 0
-418 -362 0
-418 -363 0
-362 -363 0
437 363 364 0
-437 -363 0
-437 -364 0
-363 -364 0
456 364 365 0
-456 -364 0
-456 -365 0
-364 -365 0
475 365 366 0
-475 -365 0
-475 -366 0
-365 -366 0
494 366 367 0
-494 -366 0
-494 -367 0
-366 -367 0
513 367 368 0
-513 -367 0
-513 -368 0
-367 -368 0
532 368 369 0
-532 -368 0
-532 -369 0
-368 -369 0
551 369 370 0
-551 -369 0
-551 -370 0
-369 -370 0
570 370 371 0
-570 -370 0
-570 -371 0
-370 -371 0
589 371 372 0
-589 -371 0
-589 -372 0
-371 -372 0
608 372 373 0
-608 -372 0
-608 -373 0
-372 -373 0
627 373 374 0
-627 -373 0
-627 -374 0
-373 -374 0
646 374 375 0
-646 -374 0
-646 -375 0
-374 -375 0
665 375 376 0
-665 -375 0
-665 -376 0
-375 -376 0
684 376 377 0
-684 -376 0
-684 -377 0
-376 -377 0
703 377 378 0
-703 -377 0
-703 -378 0
-377 -378 0
722 378 379 0
-722 -378 0
-722 -379 0
-378 -379 0
741 379 0
-741 -379 0
-380 0
-760 0
